p cnf 7230 16
5701 -5886 0
-2902 -5699 -5887 0
2902 -5888 0
5701 -5890 0
-2904 -5886 -5889 0
5891 5892 0
5707 -5892 0
-5707 -5891 0
5887 5888 0
5885 5886 0
-5701 -5885 0
5889 5890 0
5699 -5888 0
2904 -5890 0
5883 5884 0
-5883 -5884 0
